(set-logic QF_S)
(declare-fun var0 () Int)
(declare-fun var1 () Int)
(declare-fun var2 () Bool)
(declare-fun var3 () String)
(declare-fun var4 () Int)
(declare-fun var5 () String)
(declare-fun var6 () String)
(declare-fun var7 () Int)
(declare-fun var8 () String)
(assert (not (>= var0 var1)))
(assert (not var2))
(assert (> (str.indexof var3 "fp91" var4) (str.to.int var5)))
(assert (> (str.len (str.substr var6 var7 var1)) (str.len (str.at var8 var0))))
(check-sat)